This is Ipopt version 3.14.16, running with linear solver MUMPS 5.7.3.

Number of nonzeros in equality constraint Jacobian...:        0
Number of nonzeros in inequality constraint Jacobian.:      289
Number of nonzeros in Lagrangian Hessian.............:        0

Total number of variables............................:       17
                     variables with only lower bounds:        0
                variables with lower and upper bounds:       17
                     variables with only upper bounds:        0
Total number of equality constraints.................:        0
Total number of inequality constraints...............:       17
        inequality constraints with only lower bounds:        0
   inequality constraints with lower and upper bounds:        0
        inequality constraints with only upper bounds:       17

iter    objective    inf_pr   inf_du lg(mu)  ||d||  lg(rg) alpha_du alpha_pr  ls
   0  5.5968366e-02 3.46e+00 9.67e-01   0.0 0.00e+00    -  0.00e+00 0.00e+00   0
   1  1.7836682e-01 0.00e+00 8.07e+00  -0.9 1.42e-01    -  3.56e-01 1.00e+00f  1
   2  1.7735633e-01 0.00e+00 4.49e-02  -2.7 6.36e-02    -  9.90e-01 1.00e+00h  1
   3  1.6879719e-01 6.74e-04 7.82e-02  -3.2 1.03e-01    -  9.99e-01 7.74e-01f  1
   4  1.5956712e-01 0.00e+00 2.09e-02  -3.8 4.34e-02    -  1.00e+00 1.00e+00h  1
   5  1.5309740e-01 3.14e-02 5.78e-02  -4.2 9.51e-02    -  1.00e+00 9.03e-01h  1
   6  1.5367940e-01 0.00e+00 1.51e-03  -4.6 2.09e-03    -  1.00e+00 1.00e+00h  1
   7  1.5318836e-01 0.00e+00 5.20e-04  -6.0 2.30e-03    -  1.00e+00 1.00e+00h  1

Number of Iterations....: 7

                                   (scaled)                 (unscaled)
Objective...............:   1.5318836383164369e-01    1.5318836383164369e-01
Dual infeasibility......:   5.1962621918551308e-04    5.1962621918551308e-04
Constraint violation....:   0.0000000000000000e+00    0.0000000000000000e+00
Variable bound violation:   0.0000000000000000e+00    0.0000000000000000e+00
Complementarity.........:   2.5559424853448688e-06    2.5559424853448688e-06
Overall NLP error.......:   5.1962621918551308e-04    5.1962621918551308e-04


Number of objective function evaluations             = 8
Number of objective gradient evaluations             = 8
Number of equality constraint evaluations            = 0
Number of inequality constraint evaluations          = 8
Number of equality constraint Jacobian evaluations   = 0
Number of inequality constraint Jacobian evaluations = 8
Number of Lagrangian Hessian evaluations             = 0
Total seconds in IPOPT                               = 5.508

EXIT: Optimal Solution Found.
